objective value:                                  -15
t_n_7                                               1 	(obj:-1)
t_n_477                                             1 	(obj:-1)
t_n_558                                             1 	(obj:-1)
t_n_598                                             1 	(obj:-1)
t_n_619                                             1 	(obj:-1)
t_n_621                                             1 	(obj:-1)
t_n_631                                             1 	(obj:-1)
t_n_729                                             1 	(obj:-1)
t_n_758                                             1 	(obj:-1)
t_n_861                                             1 	(obj:-1)
t_n_902                                             1 	(obj:-1)
t_n_906                                             1 	(obj:-1)
t_n_919                                             1 	(obj:-1)
t_n_928                                             1 	(obj:-1)
t_n_951                                             1 	(obj:-1)
